;; ===================== PROJECTED CANON (QE) =====================
;; Each clause below is entailed by Proj = ∃W.F over the canonical vocabulary.
;; Units appear first for clarity; OR-clauses (SAT-filtered) follow.
;; ==================================================================

;; Unit Bool constraints (entailed)
(assert patient_has_diagnosis_of_community_acquired_pneumonia_now)
(assert patient_has_undergone_plain_chest_x_ray_now)
(assert patient_has_finding_of_radiologic_infiltrate_of_lung_now)
